
  32    4
  10   10   10   10

   0   0   0   0   0  14 2 4 7 9 12 13 14 15 16 27 28 29 30 31 
   5   1   1   1   0   2 5 3 
   7   5   2   0   1   5 25 23 19 17 6 
   9   3   5   0   3   3 23 22 5 
   7   4   0   3   6   3 20 19 11 
   7   0   6   8   2   1 8 
   9   3   3   2   0   3 26 22 17 
   8   0   7   4   3   2 21 10 
   1   5   0   4   6   2 24 22 
   2   5   4   0   2   1 18 
  10   1   0   7   5   1 17 
   8   2   0   3   5   1 24 
   9   0   4   4   4   1 20 
   6   7   5   0   2   1 19 
   1   4   4   3   0   1 18 
   2   6   2   4   0   1 17 
   3   0   4   5   3   1 32
   2   4   0   5   1   1 32
   1   2   0   8   3   1 32
   3   3   4   0   7   1 32
   3   4   0   3   2   1 32
   6   8   3   2   0   1 32
  10   3   0   6   7   1 32
   4   2   5   0   6   1 32
   4   4   2   5   0   1 32
   6   4   0   2   4   1 32
  10   4   0   1   4   1 32
   4   3   0   3   4   1 32
   5  10   4   0   5   1 32
   2   6   0   5   5   1 32
   6   1   7   0   6   1 32
   0   0   0   0   0   0 
